
Log started (V12.7.0.0) Fri Feb  3 23:21:40 2017


Problem 'shortest_path_from_A_to_J.lp' read.
Read time = 0.01 sec. (0.00 ticks)
Tried aggregator 3 times.
MIP Presolve eliminated 2 rows and 8 columns.
Aggregator did 8 substitutions.
All rows and columns eliminated.
Presolve time = 0.00 sec. (0.03 ticks)

Root node processing (before b&c):
  Real time             =    0.00 sec. (0.03 ticks)
Parallel b&c, 4 threads:
  Real time             =    0.00 sec. (0.00 ticks)
  Sync time (average)   =    0.00 sec.
  Wait time (average)   =    0.00 sec.
                          ------------
Total (root+branch&cut) =    0.00 sec. (0.03 ticks)

Solution pool: 1 solution saved.

MIP - Integer optimal solution:  Objective =  1.5000000000e+01
Solution time =    0.01 sec.  Iterations = 0  Nodes = 0
Deterministic time = 0.03 ticks  (3.43 ticks/sec)


Log started (V12.7.0.0) Fri Feb  3 23:22:22 2017


Problem 'tournees-optimales-1.lp' read.
Read time = 0.00 sec. (0.00 ticks)
Tried aggregator 4 times.
MIP Presolve eliminated 2 rows and 8 columns.
MIP Presolve added 1 rows and 1 columns.
Aggregator did 9 substitutions.
All rows and columns eliminated.
Presolve time = 0.00 sec. (0.03 ticks)

Root node processing (before b&c):
  Real time             =    0.00 sec. (0.04 ticks)
Parallel b&c, 4 threads:
  Real time             =    0.00 sec. (0.00 ticks)
  Sync time (average)   =    0.00 sec.
  Wait time (average)   =    0.00 sec.
                          ------------
Total (root+branch&cut) =    0.00 sec. (0.04 ticks)

Solution pool: 1 solution saved.

MIP - Integer optimal solution:  Objective =  1.5000000000e+01
Solution time =    0.00 sec.  Iterations = 0  Nodes = 0
Deterministic time = 0.04 ticks  (33.72 ticks/sec)


Log started (V12.7.0.0) Fri Feb  3 23:23:43 2017


Problem 'shortest_path_AB.lp' read.
Read time = 0.00 sec. (0.00 ticks)
Found incumbent of value 3.000000 after 0.00 sec. (0.00 ticks)
Tried aggregator 2 times.
MIP Presolve eliminated 2 rows and 4 columns.
Aggregator did 2 substitutions.
Reduced MIP has 5 rows, 10 columns, and 16 nonzeros.
Reduced MIP has 10 binaries, 0 generals, 0 SOSs, and 0 indicators.
Presolve time = 0.00 sec. (0.02 ticks)
Probing time = 0.00 sec. (0.00 ticks)
Tried aggregator 1 time.
Reduced MIP has 5 rows, 10 columns, and 16 nonzeros.
Reduced MIP has 10 binaries, 0 generals, 0 SOSs, and 0 indicators.
Presolve time = 0.00 sec. (0.01 ticks)

Root node processing (before b&c):
  Real time             =    0.00 sec. (0.05 ticks)
Parallel b&c, 4 threads:
  Real time             =    0.00 sec. (0.00 ticks)
  Sync time (average)   =    0.00 sec.
  Wait time (average)   =    0.00 sec.
                          ------------
Total (root+branch&cut) =    0.00 sec. (0.05 ticks)

Solution pool: 1 solution saved.

MIP - Integer optimal solution:  Objective =  3.0000000000e+00
Solution time =    0.00 sec.  Iterations = 0  Nodes = 0 (1)
Deterministic time = 0.05 ticks  (10.13 ticks/sec)


Incumbent solution
Variable Name           Solution Value
X_AB                          1.000000
All other variables matching '*' are 0.

Incumbent solution
Variable Name           Solution Value
X_AC                          1.000000
X_CF                          1.000000
X_FH                          1.000000
X_HJ                          1.000000
All other variables matching '*' are 0.
